benchmarks_CP/INST_36x36/55/inst36x36_55_80.dzn
S=6;
start=[|
12,	-1,	-1,	26,	25,	17,	3,	-1,	11,	-1,	-1,	32,	33,	2,	15,	-1,	21,	5,	7,	-1,	28,	10,	-1,	16,	-1,	18,	-1,	8,	-1,	-1,	-1,	23,	29,	34,	-1,	-1|
8,	11,	-1,	7,	-1,	-1,	-1,	-1,	18,	-1,	36,	-1,	6,	3,	24,	1,	17,	-1,	-1,	-1,	-1,	-1,	32,	14,	12,	30,	25,	-1,	-1,	-1,	-1,	33,	-1,	-1,	-1,	-1|
-1,	-1,	35,	2,	-1,	10,	17,	-1,	12,	16,	-1,	15,	-1,	36,	23,	-1,	-1,	13,	19,	8,	9,	5,	-1,	-1,	28,	32,	27,	-1,	-1,	24,	4,	7,	-1,	14,	3,	-1|
28,	32,	30,	-1,	-1,	-1,	-1,	-1,	8,	-1,	33,	-1,	-1,	-1,	-1,	19,	-1,	-1,	23,	22,	3,	12,	25,	21,	17,	2,	-1,	-1,	1,	34,	15,	11,	-1,	-1,	36,	31|
18,	27,	14,	33,	6,	4,	21,	23,	25,	2,	35,	24,	-1,	12,	-1,	-1,	-1,	-1,	-1,	1,	17,	31,	-1,	-1,	3,	-1,	-1,	15,	22,	-1,	32,	28,	16,	19,	-1,	10|
3,	36,	34,	-1,	13,	16,	1,	-1,	-1,	-1,	7,	-1,	29,	-1,	31,	32,	-1,	-1,	15,	2,	-1,	11,	-1,	-1,	-1,	20,	21,	14,	33,	9,	25,	8,	30,	22,	17,	12|
26,	-1,	16,	29,	28,	18,	6,	2,	-1,	-1,	14,	-1,	-1,	-1,	-1,	-1,	9,	-1,	11,	27,	10,	36,	20,	15,	31,	34,	30,	32,	23,	-1,	19,	-1,	-1,	24,	-1,	-1|
-1,	-1,	-1,	-1,	-1,	34,	-1,	-1,	27,	-1,	-1,	-1,	13,	30,	33,	22,	-1,	-1,	14,	4,	8,	-1,	21,	-1,	6,	35,	26,	28,	15,	12,	9,	-1,	-1,	-1,	-1,	-1|
7,	-1,	36,	-1,	21,	-1,	-1,	-1,	1,	-1,	26,	-1,	15,	27,	-1,	3,	-1,	23,	28,	35,	-1,	-1,	-1,	24,	-1,	4,	10,	-1,	-1,	-1,	30,	2,	11,	32,	-1,	-1|
14,	-1,	10,	-1,	3,	33,	35,	32,	-1,	28,	-1,	-1,	19,	11,	16,	-1,	-1,	-1,	29,	30,	-1,	-1,	6,	-1,	20,	-1,	24,	-1,	9,	-1,	17,	-1,	-1,	-1,	8,	21|
-1,	19,	-1,	1,	24,	13,	-1,	-1,	30,	20,	31,	36,	-1,	-1,	-1,	-1,	-1,	10,	-1,	12,	-1,	9,	-1,	23,	-1,	8,	-1,	-1,	29,	-1,	14,	27,	18,	16,	35,	15|
4,	-1,	23,	-1,	-1,	15,	10,	-1,	5,	11,	-1,	16,	-1,	-1,	29,	12,	2,	20,	3,	18,	-1,	19,	-1,	25,	-1,	33,	-1,	-1,	17,	-1,	-1,	-1,	28,	26,	34,	6|
36,	24,	27,	-1,	-1,	6,	25,	-1,	-1,	12,	19,	21,	7,	-1,	2,	17,	-1,	31,	33,	13,	11,	28,	3,	-1,	-1,	10,	-1,	1,	20,	4,	35,	14,	-1,	-1,	23,	16|
20,	14,	13,	31,	-1,	11,	-1,	-1,	-1,	-1,	-1,	7,	-1,	-1,	-1,	8,	18,	-1,	-1,	25,	-1,	21,	-1,	-1,	-1,	15,	-1,	-1,	-1,	-1,	5,	19,	-1,	-1,	-1,	-1|
10,	16,	-1,	-1,	33,	35,	-1,	4,	17,	18,	-1,	1,	-1,	-1,	5,	-1,	12,	-1,	9,	-1,	27,	26,	15,	7,	-1,	-1,	-1,	-1,	-1,	-1,	13,	31,	-1,	6,	28,	25|
1,	-1,	-1,	12,	-1,	25,	-1,	-1,	-1,	31,	16,	14,	4,	19,	21,	-1,	-1,	-1,	-1,	-1,	34,	-1,	29,	-1,	30,	-1,	-1,	33,	7,	-1,	10,	-1,	22,	-1,	11,	36|
15,	4,	29,	-1,	32,	-1,	-1,	-1,	6,	33,	-1,	23,	-1,	10,	11,	-1,	28,	1,	-1,	-1,	-1,	-1,	-1,	19,	-1,	-1,	35,	-1,	-1,	3,	-1,	30,	-1,	2,	-1,	-1|
9,	7,	-1,	-1,	-1,	-1,	34,	11,	2,	15,	13,	29,	36,	23,	25,	33,	-1,	-1,	4,	10,	22,	-1,	-1,	30,	-1,	-1,	12,	26,	-1,	-1,	-1,	20,	21,	17,	1,	3|
11,	33,	-1,	-1,	-1,	-1,	-1,	-1,	13,	21,	17,	-1,	-1,	-1,	-1,	16,	20,	-1,	-1,	-1,	24,	23,	-1,	12,	-1,	-1,	-1,	-1,	25,	6,	36,	-1,	-1,	7,	19,	-1|
31,	18,	6,	-1,	22,	-1,	15,	16,	-1,	19,	-1,	-1,	-1,	25,	27,	-1,	33,	3,	36,	-1,	4,	30,	7,	2,	-1,	-1,	-1,	-1,	-1,	-1,	-1,	-1,	20,	28,	32,	26|
13,	-1,	-1,	-1,	-1,	23,	24,	6,	4,	10,	-1,	-1,	18,	-1,	22,	9,	36,	-1,	26,	11,	-1,	14,	1,	20,	19,	-1,	28,	21,	32,	15,	29,	-1,	-1,	30,	2,	34|
-1,	-1,	19,	14,	-1,	-1,	-1,	20,	32,	-1,	25,	-1,	10,	-1,	30,	15,	6,	4,	8,	21,	-1,	29,	-1,	28,	34,	23,	22,	-1,	-1,	7,	33,	5,	17,	3,	12,	-1|
34,	-1,	-1,	20,	36,	-1,	18,	29,	7,	23,	-1,	31,	-1,	5,	-1,	2,	32,	-1,	-1,	-1,	-1,	17,	-1,	-1,	16,	-1,	4,	24,	8,	-1,	-1,	-1,	-1,	27,	25,	11|
30,	-1,	-1,	15,	27,	32,	12,	-1,	-1,	-1,	-1,	28,	-1,	13,	19,	35,	-1,	-1,	-1,	33,	31,	25,	-1,	6,	11,	26,	3,	-1,	-1,	-1,	1,	-1,	9,	23,	24,	-1|
17,	10,	33,	4,	29,	2,	7,	15,	31,	1,	3,	27,	35,	20,	-1,	6,	30,	19,	-1,	-1,	-1,	-1,	-1,	8,	-1,	-1,	-1,	-1,	-1,	26,	22,	-1,	14,	-1,	13,	28|
-1,	3,	21,	-1,	34,	-1,	-1,	36,	29,	14,	4,	-1,	11,	-1,	7,	-1,	-1,	-1,	30,	-1,	25,	-1,	-1,	17,	15,	-1,	-1,	-1,	35,	-1,	-1,	24,	-1,	20,	-1,	32|
-1,	1,	-1,	18,	-1,	27,	-1,	12,	-1,	-1,	2,	35,	-1,	33,	17,	-1,	3,	16,	13,	15,	29,	6,	11,	10,	24,	31,	-1,	-1,	-1,	28,	34,	26,	-1,	-1,	30,	-1|
-1,	-1,	-1,	13,	26,	-1,	32,	24,	-1,	17,	-1,	30,	2,	22,	-1,	25,	1,	-1,	34,	20,	19,	33,	4,	-1,	36,	-1,	-1,	12,	3,	-1,	-1,	35,	-1,	-1,	10,	-1|
25,	-1,	28,	30,	-1,	-1,	-1,	-1,	16,	-1,	-1,	-1,	24,	-1,	-1,	27,	13,	-1,	-1,	-1,	-1,	1,	-1,	-1,	4,	-1,	-1,	17,	-1,	-1,	-1,	-1,	-1,	-1,	-1,	-1|
24,	-1,	5,	36,	-1,	-1,	-1,	18,	-1,	8,	6,	25,	34,	-1,	32,	28,	23,	15,	-1,	-1,	21,	27,	-1,	-1,	-1,	13,	-1,	-1,	30,	-1,	31,	9,	-1,	1,	29,	17|
-1,	34,	17,	16,	-1,	-1,	-1,	-1,	24,	-1,	-1,	-1,	-1,	-1,	3,	23,	8,	2,	25,	9,	-1,	-1,	26,	4,	-1,	-1,	-1,	27,	6,	-1,	-1,	-1,	-1,	-1,	-1,	5|
35,	-1,	24,	21,	4,	-1,	-1,	-1,	23,	-1,	29,	17,	12,	15,	20,	26,	-1,	-1,	10,	14,	13,	8,	33,	-1,	-1,	3,	1,	34,	-1,	-1,	28,	6,	-1,	11,	-1,	-1|
5,	-1,	-1,	6,	12,	-1,	31,	-1,	10,	-1,	27,	-1,	-1,	-1,	4,	-1,	11,	-1,	21,	19,	30,	-1,	-1,	-1,	9,	24,	15,	23,	-1,	16,	20,	-1,	25,	8,	-1,	7|
27,	23,	-1,	19,	-1,	-1,	-1,	1,	-1,	-1,	34,	18,	-1,	9,	-1,	10,	24,	22,	-1,	-1,	-1,	-1,	-1,	-1,	35,	25,	-1,	4,	-1,	14,	-1,	36,	-1,	33,	-1,	30|
-1,	13,	9,	11,	7,	14,	4,	-1,	15,	25,	21,	-1,	27,	-1,	18,	-1,	19,	34,	32,	-1,	-1,	2,	28,	29,	33,	36,	-1,	-1,	-1,	20,	3,	-1,	35,	-1,	-1,	23|
29,	25,	8,	-1,	-1,	-1,	-1,	33,	-1,	5,	11,	-1,	28,	21,	36,	-1,	35,	6,	31,	16,	-1,	3,	-1,	34,	22,	19,	-1,	2,	12,	10,	-1,	15,	-1,	-1,	27,	-1|];
